12 48 3 10
1 6 9 15 16 17 17 14 19 1 10 10 17 3 17 19 5 15 7 9 5 15 19 9 20 8 14 6 9 18 15 2 3 15 8 9 16 18 3 20 16 4 1 17 3 9 5 11 
0.73 0.25 4.25 7.67 4.26 6.81 0.3 1.37 2.47 0.13 3.71 3.68 6.89 2.65 6.43 7.98 5.53 7.61 7.71 3.91 5.64 4.53 1.81 0.8 5.4 4.33 2.27 3.46 5.36 5.04 3.62 5.6 2.56 2.79 0.88 1.52 4.63 7.91 7.87 2.44 7.57 6.82 7.58 2.19 3.54 6.97 6.81 4.71 
6.51 0.24 0.25 1.64 3.79 2.43 3.46 4.1 1.32 3.9 6.28 6.12 4.06 6.85 2.23 6.51 6.19 3.42 1 2.75 0.19 1.15 1.33 5.58 7.19 1.43 1.89 0.72 6.25 0.41 2.43 3.1 5.48 7 7.35 2.1 1.4 6.23 6.83 6 4.88 7.83 6.96 2.79 3.89 4.91 4.72 1.5 
0.9 4.85 5.09 5.03 3.03 3.42 4.73 4.27 3.52 1.48 2.85 1.81 2.53 2.09 5.93 2.75 4.69 3 2.03 3.45 6.16 2.67 5.18 6.63 5.33 2.67 3.31 3.73 2.15 6.4 5.62 5.39 6.98 2.85 1.23 2.64 7.01 0.49 5.71 2.69 6.84 3.19 6.2 5.35 1.49 6.14 2.99 6.36 
4 4 4 4 4 4 4 4 4 4 4 4 4 4 4 4 4 4 4 4 4 4 4 4 4 4 4 4 4 4 4 4 4 4 4 4 4 4 4 4 4 4 4 4 4 4 4 4 
1.12 0.05 4.49 2.5 1.74 0.61 5.43 2.06 0.81 3.82 6.31 4.67 2.82 5.24 7.14 5.58 5.33 5.06 1.02 5.16 6.51 2.84 4.48 0.15 2.85 0.8 4.65 0.22 5.96 5.6 6.75 2.93 3.78 1.42 1.97 4.5 6 3 2.37 6.54 3.92 4.94 7.08 7.97 4.56 4.63 1.39 7.51 
5.12 3.38 3.14 3.05 7.48 6.22 2.58 1.66 6.77 6.26 2.01 7.51 2.49 0.09 6.51 0.53 4.88 2.95 7.03 2.53 7.95 3.89 2.71 6.36 2.98 1.78 4.38 6.02 6.34 1.41 2.78 6.98 0.84 0.7 5.71 0.12 6.44 4.73 4.55 0.82 7.99 1.18 4.86 1.47 5.59 4.11 2.76 5.85 
5.94 7.43 2.66 4.74 5.58 7.5 1.91 0.39 2.41 0.86 2.27 1.86 5.19 4.68 7.3 5.69 6.98 3.81 3.44 5.24 7.05 1 6.84 7.32 6.01 4.23 0.2 1.15 2.3 0.78 6.43 4.74 7.82 2.7 2.72 6.68 4.62 7.83 1.18 6.12 1.88 1.51 1.1 6.92 6.69 2.91 0.72 1.38 
5.15 2.38 1.75 5.25 3.07 1.74 5.48 0.56 3.93 1.46 0.03 5.82 6.68 1.76 6.05 4.56 4.22 1.43 0.46 5.61 3.36 6.02 3.59 5.56 1.7 3.94 5.4 7.54 1.48 1.66 5.16 3.43 1.25 3.26 3.21 2.66 5.4 3.9 7.9 2.88 4.99 7.42 0.5 7.33 0.15 4.4 4.85 1.84 
0.42 0.27 7.08 3.89 5.11 2.81 3.18 4.43 5.37 5.93 2.85 3.72 6.43 1.16 4.33 1.73 2.24 2.08 7.23 5.06 1.41 5.08 7.86 4.24 7.79 2.88 1.33 2.22 7.21 3.34 5.82 2.92 7.54 4.44 5.6 6.45 6.23 0.16 4.37 6.81 3.9 4.2 6.23 7.78 6.76 5.95 2.2 1.27 
2.86 5.01 5.03 5.39 7.04 6.85 1.13 7.29 1.95 4.12 1.18 6.96 4.32 4.79 1.98 3.31 2.78 5.71 7.62 1.6 2.57 0.65 7.46 4.96 3.19 3.31 5.13 0.07 7.29 3.01 1.95 0.29 3.93 7.67 6.18 3.03 2.23 7.71 5.08 7.2 1.32 6.35 0.5 0.88 3.28 4.75 7.18 1.03 
2.06 0.84 3.15 0.6 6.03 1 3.61 4.39 7.48 3.63 2.48 5.44 0.71 0.01 6.02 1.94 7.68 2.7 1.56 0.8 4.92 7.75 5.59 7.73 1.72 2.84 5.97 4.55 6.53 0.84 7.08 1.51 4.6 2.28 3.44 0.39 6.93 0.86 4.73 6.04 3.38 5.74 3.51 3.57 3.65 3.66 6.5 7.14 
0.79 2.15 5.25 1.65 3.6 0.14 4.22 2.34 7.22 6.06 4.52 4.35 4.35 3.42 4.4 5.6 7.87 4.86 1.05 1.5 4.76 6.37 2.52 7.86 6.96 6.19 7.44 7.07 6.46 7.54 3.45 4.5 6.47 0.33 0.5 2.31 1.56 0.18 4.95 6.49 3.88 1.08 0.97 2.73 7.79 6.82 7.05 0.41 
1 1 1 1 1 1 1 1 1 1 1 1 1 1 1 1 1 1 1 1 1 1 1 1 1 1 1 1 1 1 1 1 1 1 1 1 1 1 1 1 1 1 1 1 1 1 1 1 
1 1 1 1 1 1 1 1 1 1 1 1 1 1 1 1 1 1 1 1 1 1 1 1 1 1 1 1 1 1 1 1 1 1 1 1 1 1 1 1 1 1 1 1 1 1 1 1 
1 1 1 1 1 1 1 1 1 1 1 1 1 1 1 1 1 1 1 1 1 1 1 1 1 1 1 1 1 1 1 1 1 1 1 1 1 1 1 1 1 1 1 1 1 1 1 1 
1 1 1 1 1 1 1 1 1 1 1 1 1 1 1 1 1 1 1 1 1 1 1 1 1 1 1 1 1 1 1 1 1 1 1 1 1 1 1 1 1 1 1 1 1 1 1 1 
1 1 1 1 1 1 1 1 1 1 1 1 1 1 1 1 1 1 1 1 1 1 1 1 1 1 1 1 1 1 1 1 1 1 1 1 1 1 1 1 1 1 1 1 1 1 1 1 
1 1 1 1 1 1 1 1 1 1 1 1 1 1 1 1 1 1 1 1 1 1 1 1 1 1 1 1 1 1 1 1 1 1 1 1 1 1 1 1 1 1 1 1 1 1 1 1 
1 1 1 1 1 1 1 1 1 1 1 1 1 1 1 1 1 1 1 1 1 1 1 1 1 1 1 1 1 1 1 1 1 1 1 1 1 1 1 1 1 1 1 1 1 1 1 1 
1 1 1 1 1 1 1 1 1 1 1 1 1 1 1 1 1 1 1 1 1 1 1 1 1 1 1 1 1 1 1 1 1 1 1 1 1 1 1 1 1 1 1 1 1 1 1 1 
1 1 1 1 1 1 1 1 1 1 1 1 1 1 1 1 1 1 1 1 1 1 1 1 1 1 1 1 1 1 1 1 1 1 1 1 1 1 1 1 1 1 1 1 1 1 1 1 
1 1 1 1 1 1 1 1 1 1 1 1 1 1 1 1 1 1 1 1 1 1 1 1 1 1 1 1 1 1 1 1 1 1 1 1 1 1 1 1 1 1 1 1 1 1 1 1 
1 1 1 1 1 1 1 1 1 1 1 1 1 1 1 1 1 1 1 1 1 1 1 1 1 1 1 1 1 1 1 1 1 1 1 1 1 1 1 1 1 1 1 1 1 1 1 1 
1 1 1 1 1 1 1 1 1 1 1 1 1 1 1 1 1 1 1 1 1 1 1 1 1 1 1 1 1 1 1 1 1 1 1 1 1 1 1 1 1 1 1 1 1 1 1 1 
0.01 0.01 0.01 0.01 0.01 0.01 0.01 0.01 0.01 0.01 0.01 0.01 0.01 0.01 0.01 0.01 0.01 0.01 0.01 0.01 0.01 0.01 0.01 0.01 0.01 0.01 0.01 0.01 0.01 0.01 0.01 0.01 0.01 0.01 0.01 0.01 0.01 0.01 0.01 0.01 0.01 0.01 0.01 0.01 0.01 0.01 0.01 0.01 
0.02 0.02 0.02 0.02 0.02 0.02 0.02 0.02 0.02 0.02 0.02 0.02 0.02 0.02 0.02 0.02 0.02 0.02 0.02 0.02 0.02 0.02 0.02 0.02 0.02 0.02 0.02 0.02 0.02 0.02 0.02 0.02 0.02 0.02 0.02 0.02 0.02 0.02 0.02 0.02 0.02 0.02 0.02 0.02 0.02 0.02 0.02 0.02 
0.03 0.03 0.03 0.03 0.03 0.03 0.03 0.03 0.03 0.03 0.03 0.03 0.03 0.03 0.03 0.03 0.03 0.03 0.03 0.03 0.03 0.03 0.03 0.03 0.03 0.03 0.03 0.03 0.03 0.03 0.03 0.03 0.03 0.03 0.03 0.03 0.03 0.03 0.03 0.03 0.03 0.03 0.03 0.03 0.03 0.03 0.03 0.03 
0.04 0.04 0.04 0.04 0.04 0.04 0.04 0.04 0.04 0.04 0.04 0.04 0.04 0.04 0.04 0.04 0.04 0.04 0.04 0.04 0.04 0.04 0.04 0.04 0.04 0.04 0.04 0.04 0.04 0.04 0.04 0.04 0.04 0.04 0.04 0.04 0.04 0.04 0.04 0.04 0.04 0.04 0.04 0.04 0.04 0.04 0.04 0.04 
0.125 0.125 0.125 0.125 0.125 0.125 0.125 0.125 0.125 0.125 0.125 0.125 0.125 0.125 0.125 0.125 0.125 0.125 0.125 0.125 0.125 0.125 0.125 0.125 0.125 0.125 0.125 0.125 0.125 0.125 0.125 0.125 0.125 0.125 0.125 0.125 0.125 0.125 0.125 0.125 0.125 0.125 0.125 0.125 0.125 0.125 0.125 0.125 
0.25 0.25 0.25 0.25 0.25 0.25 0.25 0.25 0.25 0.25 0.25 0.25 0.25 0.25 0.25 0.25 0.25 0.25 0.25 0.25 0.25 0.25 0.25 0.25 0.25 0.25 0.25 0.25 0.25 0.25 0.25 0.25 0.25 0.25 0.25 0.25 0.25 0.25 0.25 0.25 0.25 0.25 0.25 0.25 0.25 0.25 0.25 0.25 
0.375 0.375 0.375 0.375 0.375 0.375 0.375 0.375 0.375 0.375 0.375 0.375 0.375 0.375 0.375 0.375 0.375 0.375 0.375 0.375 0.375 0.375 0.375 0.375 0.375 0.375 0.375 0.375 0.375 0.375 0.375 0.375 0.375 0.375 0.375 0.375 0.375 0.375 0.375 0.375 0.375 0.375 0.375 0.375 0.375 0.375 0.375 0.375 
0.5 0.5 0.5 0.5 0.5 0.5 0.5 0.5 0.5 0.5 0.5 0.5 0.5 0.5 0.5 0.5 0.5 0.5 0.5 0.5 0.5 0.5 0.5 0.5 0.5 0.5 0.5 0.5 0.5 0.5 0.5 0.5 0.5 0.5 0.5 0.5 0.5 0.5 0.5 0.5 0.5 0.5 0.5 0.5 0.5 0.5 0.5 0.5 
0.625 0.625 0.625 0.625 0.625 0.625 0.625 0.625 0.625 0.625 0.625 0.625 0.625 0.625 0.625 0.625 0.625 0.625 0.625 0.625 0.625 0.625 0.625 0.625 0.625 0.625 0.625 0.625 0.625 0.625 0.625 0.625 0.625 0.625 0.625 0.625 0.625 0.625 0.625 0.625 0.625 0.625 0.625 0.625 0.625 0.625 0.625 0.625 
0.75 0.75 0.75 0.75 0.75 0.75 0.75 0.75 0.75 0.75 0.75 0.75 0.75 0.75 0.75 0.75 0.75 0.75 0.75 0.75 0.75 0.75 0.75 0.75 0.75 0.75 0.75 0.75 0.75 0.75 0.75 0.75 0.75 0.75 0.75 0.75 0.75 0.75 0.75 0.75 0.75 0.75 0.75 0.75 0.75 0.75 0.75 0.75 
0.875 0.875 0.875 0.875 0.875 0.875 0.875 0.875 0.875 0.875 0.875 0.875 0.875 0.875 0.875 0.875 0.875 0.875 0.875 0.875 0.875 0.875 0.875 0.875 0.875 0.875 0.875 0.875 0.875 0.875 0.875 0.875 0.875 0.875 0.875 0.875 0.875 0.875 0.875 0.875 0.875 0.875 0.875 0.875 0.875 0.875 0.875 0.875 
1 1 1 1 1 1 1 1 1 1 1 1 1 1 1 1 1 1 1 1 1 1 1 1 1 1 1 1 1 1 1 1 1 1 1 1 1 1 1 1 1 1 1 1 1 1 1 1 
